(set-logic QF_S)
(declare-fun var0 () String)
(assert (RegexIn var0 (RegexConcat (RegexStar (RegexPlus (Str2Reg "0"))) (RegexConcat (RegexUnion (RegexPlus (Str2Reg "111")) (RegexPlus (Str2Reg "2"))) (RegexConcat (RegexStar (RegexUnion (Str2Reg "33") (Str2Reg "444"))) (RegexConcat (RegexPlus (RegexStar (Str2Reg "55"))) (RegexConcat (RegexPlus (RegexPlus (Str2Reg "6"))) (RegexConcat (RegexPlus (RegexPlus (Str2Reg "77"))) (RegexConcat (RegexUnion (RegexUnion (Str2Reg "8") (Str2Reg "9")) (RegexUnion (Str2Reg "a") (Str2Reg "b"))) (RegexConcat (RegexPlus (RegexUnion (Str2Reg "cc") (Str2Reg "dd"))) (RegexConcat (RegexPlus (RegexStar (Str2Reg "eee"))) (RegexConcat (RegexPlus (RegexUnion (Str2Reg "fff") (Str2Reg "ggg"))) (RegexConcat (RegexUnion (RegexPlus (Str2Reg "hhh")) (RegexPlus (Str2Reg "iii"))) (RegexConcat (RegexStar (RegexPlus (Str2Reg "j"))) (RegexConcat (RegexStar (RegexUnion (Str2Reg "kkk") (Str2Reg "lll"))) (RegexConcat (RegexPlus (RegexPlus (Str2Reg "mmm"))) (RegexConcat (RegexUnion (RegexUnion (Str2Reg "nnn") (Str2Reg "oo")) (RegexUnion (Str2Reg "p") (Str2Reg "q"))) (RegexConcat (RegexPlus (RegexUnion (Str2Reg "rr") (Str2Reg "sss"))) (RegexConcat (RegexUnion (RegexUnion (Str2Reg "t") (Str2Reg "u")) (RegexUnion (Str2Reg "v") (Str2Reg "ww"))) (RegexConcat (RegexUnion (RegexStar (Str2Reg "xx")) (RegexStar (Str2Reg "yy"))) (RegexConcat (RegexUnion (RegexUnion (Str2Reg "z") (Str2Reg "AAA")) (RegexUnion (Str2Reg "B") (Str2Reg "C"))) (RegexConcat (RegexPlus (RegexPlus (Str2Reg "D"))) (RegexConcat (RegexUnion (RegexStar (Str2Reg "EE")) (RegexStar (Str2Reg "FFF"))) (RegexStar (RegexStar (Str2Reg "G"))))))))))))))))))))))))))
(check-sat)